*Heading
 assembly with parts, instances and multiple steps
**
** part definitions
*Part, name=PlatePart
*Node
1, 0.0, 0.0, 0.0
2, 10.0, 0.0, 0.0
3, 10.0, 10.0, 0.0
4, 0.0, 10.0, 0.0
*Element, type=CPS4R, elset=PlateElset
1, 1, 2, 3, 4
*End Part
**
*Part, name=StiffenerPart
*Node
1, 0.0, 5.0, 0.0
2, 10.0, 5.0, 0.0
*Element, type=B21, elset=BeamElset
1, 1, 2
*End Part
**
** assembly definition
*Assembly, name=MainAssembly
*Instance, name=Plate-1, part=PlatePart
*End Instance
*Instance, name=Stiffener-1, part=StiffenerPart
*End Instance
*Tie, name=AssemblyTie
Plate-1.PlateElset, Stiffener-1.BeamElset
*End Assembly
**
** materials and sections
*Material, name=Steel
*Elastic
210000.0, 0.3
*Solid Section, elset=Plate-1.PlateElset, material=Steel
1.5,
**
** step 1: preload
*Step, name=PreloadStep, nlgeom=NO
*Static
0.1, 1.0
*Boundary
Plate-1.1, 1, 2, 0.0
*Cload
Plate-1.2, 1, 100.0
*End Step
**
** step 2: mechanical load
*Step, name=LoadStep, nlgeom=YES, inc=500
*Static
0.05, 1.0, 1.0e-08, 0.1
*Cload
Plate-1.3, 2, -250.0
*Output, field
*Node Output
U, RF
*End Step
